multiobj/instances/uniform/Ter.5.2.0.00.1.in
5 2
0 771 544 977 248 
771 0 574 244 593 
544 574 0 691 433 
977 244 691 0 73 
248 593 433 73 0 
0 403 434 330 945 
403 0 981 345 128 
434 981 0 273 206 
330 345 273 0 607 
945 128 206 607 0 
0 147 449 902 211 
147 0 370 778 464 
449 370 0 465 346 
902 778 465 0 508 
211 464 346 508 0 
