multiobj/solutions/Ter.5.2.0.00.1.out
6 2
4 1 3 2 0 
3808212 4786294 
1 0 2 4 3 
4070490 4565000 
2 3 1 4 0 
4090830 4267100 
0 3 1 4 2 
4440452 3980578 
3 2 1 4 0 
5170172 3906582 
3 0 1 4 2 
5262438 3779530 
